c DCNF-Autarky [version 0.0.1]. 
c Copyright (c) 2018-2019 Swansea University. 
c 
c Input QBF/DQBF path: Basler/wmiforward/stmt17_143_144.qdimacs
c Output SAT Translation Path: /tmp/stmt17_143_144.qdimacs-dcnfAutarky.dimacs
c Input Clause Count (tautology free): 683
c
c Performing E1-Autarky iteration.
c Remaining clauses count after E-Reduction: 682
c
c Performing A1-Autarky iteration.
c Running Lingeling ... 
c
c Remaining clauses count after A-Reduction: 682
c
c Input Parameter (command line, file): 
c input filename   Basler/wmiforward/stmt17_143_144.qdimacs
c output filename  /tmp/stmt17_143_144.qdimacs-dcnfAutarky.dimacs
c autarky level    1
c conformity level 0
c encoding type    2
c no.of var        220
c no.of clauses    683
c no.of taut cls   0
c 
c Output Parameters: 
c remaining no.of clauses  682
c
c filename pn pc autarky ntaut rpa rpe rpcdiff result
c "Basler/wmiforward/stmt17_143_144.qdimacs" 220 683 "E1+A1" 0 36 183 1 "RED" 
p cnf 220 682
a 2 3 4 8 13 15 16 20 21 22 23 27 31 33 37 39 44 45 46 50 54 56 60 62 67 68 69 73 77 79 83 85 90 91 92 94 0
e 1 5 6 7 9 10 11 12 14 17 18 19 24 25 26 28 29 30 32 34 35 36 38 40 41 42 43 47 48 49 51 52 53 55 57 58 59 61 63 64 65 66 70 71 72 74 75 76 78 80 81 82 84 86 87 88 89 93 95 96 97 98 99 100 101 102 103 104 105 106 107 108 109 110 111 112 113 114 115 116 117 118 119 120 121 122 123 124 125 126 127 128 129 130 131 132 133 134 135 136 137 138 139 140 141 142 143 144 145 146 147 148 149 150 151 152 153 154 155 156 157 158 159 160 161 162 163 164 165 166 167 168 169 170 171 172 173 174 175 176 177 178 179 180 181 182 183 184 185 186 187 188 189 190 191 192 193 194 195 196 197 198 199 200 201 202 203 204 205 206 207 208 209 210 211 212 213 214 215 216 217 218 219 220 0
3 -5 0
4 -5 0
-3 -4 5 0
3 -6 0
-4 -6 0
-3 4 6 0
3 7 0
-5 7 0
-6 7 0
-3 5 6 -7 0
-8 9 0
8 9 0
2 -10 0
7 -10 0
9 -10 0
-2 -7 -9 10 0
-2 -11 0
7 -11 0
2 -7 11 0
-10 12 0
-11 12 0
10 11 -12 0
-13 14 0
13 14 0
-16 17 0
16 17 0
15 -18 0
17 -18 0
-15 -17 18 0
15 19 0
-18 19 0
-15 18 -19 0
22 -24 0
23 -24 0
-22 -23 24 0
22 -25 0
-23 -25 0
-22 23 25 0
-24 26 0
-25 26 0
24 25 -26 0
26 -28 0
27 -28 0
-26 -27 28 0
26 -29 0
-27 -29 0
-26 27 29 0
-28 30 0
-29 30 0
28 29 -30 0
30 -32 0
-31 -32 0
-30 31 32 0
30 -34 0
31 -34 0
33 -34 0
-30 -31 -33 34 0
30 -35 0
31 -35 0
-33 -35 0
-30 -31 33 35 0
22 36 0
-32 36 0
-34 36 0
-35 36 0
-22 32 34 35 -36 0
20 -38 0
21 -38 0
36 -38 0
37 -38 0
-20 -21 -36 -37 38 0
20 -40 0
-21 -40 0
39 -40 0
-20 21 -39 40 0
20 -41 0
21 -41 0
36 -41 0
-37 -41 0
-20 -21 -36 37 41 0
20 -42 0
-21 -42 0
-39 -42 0
-20 21 39 42 0
-41 43 0
-42 43 0
41 42 -43 0
45 -47 0
46 -47 0
-45 -46 47 0
45 -48 0
-46 -48 0
-45 46 48 0
-47 49 0
-48 49 0
47 48 -49 0
49 -51 0
50 -51 0
-49 -50 51 0
49 -52 0
-50 -52 0
-49 50 52 0
-51 53 0
-52 53 0
51 52 -53 0
53 -55 0
-54 -55 0
-53 54 55 0
53 -57 0
54 -57 0
56 -57 0
-53 -54 -56 57 0
53 -58 0
54 -58 0
-56 -58 0
-53 -54 56 58 0
45 59 0
-55 59 0
-57 59 0
-58 59 0
-45 55 57 58 -59 0
43 -61 0
44 -61 0
59 -61 0
60 -61 0
-43 -44 -59 -60 61 0
43 -63 0
-44 -63 0
62 -63 0
-43 44 -62 63 0
43 -64 0
44 -64 0
59 -64 0
-60 -64 0
-43 -44 -59 60 64 0
43 -65 0
-44 -65 0
-62 -65 0
-43 44 62 65 0
-64 66 0
-65 66 0
64 65 -66 0
68 -70 0
69 -70 0
-68 -69 70 0
68 -71 0
-69 -71 0
-68 69 71 0
-70 72 0
-71 72 0
70 71 -72 0
72 -74 0
73 -74 0
-72 -73 74 0
72 -75 0
-73 -75 0
-72 73 75 0
-74 76 0
-75 76 0
74 75 -76 0
76 -78 0
-77 -78 0
-76 77 78 0
76 -80 0
77 -80 0
79 -80 0
-76 -77 -79 80 0
76 -81 0
77 -81 0
-79 -81 0
-76 -77 79 81 0
68 82 0
-78 82 0
-80 82 0
-81 82 0
-68 78 80 81 -82 0
66 -84 0
67 -84 0
82 -84 0
83 -84 0
-66 -67 -82 -83 84 0
66 -86 0
-67 -86 0
85 -86 0
-66 67 -85 86 0
66 -87 0
67 -87 0
82 -87 0
-83 -87 0
-66 -67 -82 83 87 0
66 -88 0
-67 -88 0
-85 -88 0
-66 67 85 88 0
-87 89 0
-88 89 0
87 88 -89 0
89 -93 0
90 -93 0
-91 -93 0
92 -93 0
-89 -90 91 -92 93 0
89 -95 0
-90 -95 0
94 -95 0
-89 90 -94 95 0
89 -96 0
-90 -96 0
-94 -96 0
-89 90 94 96 0
89 -97 0
90 -97 0
-91 -97 0
-92 -97 0
-89 -90 91 92 97 0
89 -98 0
90 -98 0
91 -98 0
-89 -90 -91 98 0
-38 99 0
-40 99 0
-61 99 0
-63 99 0
-84 99 0
-86 99 0
-93 99 0
-95 99 0
-96 99 0
-97 99 0
-98 99 0
38 40 61 63 84 86 93 95 96 97 98 -99 0
12 -100 0
14 -100 0
19 -100 0
99 -100 0
-12 -14 -19 -99 100 0
-8 101 0
8 101 0
2 -102 0
101 -102 0
-2 -101 102 0
-102 103 0
2 103 0
102 -2 -103 0
103 -104 0
15 -104 0
17 -104 0
-103 -15 -17 104 0
103 -105 0
-15 -105 0
-103 15 105 0
-104 106 0
-105 106 0
104 105 -106 0
106 -107 0
20 -107 0
-21 -107 0
39 -107 0
-106 -20 21 -39 107 0
106 -108 0
20 -108 0
-21 -108 0
-39 -108 0
-106 -20 21 39 108 0
106 -109 0
-22 -109 0
-106 22 109 0
106 -110 0
30 -110 0
-31 -110 0
-106 -30 31 110 0
-34 111 0
-35 111 0
34 35 -111 0
106 -112 0
111 -112 0
-106 -111 112 0
-109 113 0
-110 113 0
-112 113 0
109 110 112 -113 0
113 -114 0
20 -114 0
21 -114 0
36 -114 0
-37 -114 0
-113 -20 -21 -36 37 114 0
-108 115 0
-114 115 0
108 114 -115 0
115 -116 0
43 -116 0
-44 -116 0
62 -116 0
-115 -43 44 -62 116 0
115 -117 0
-45 -117 0
-115 45 117 0
115 -118 0
53 -118 0
-54 -118 0
-115 -53 54 118 0
-57 119 0
-58 119 0
57 58 -119 0
115 -120 0
119 -120 0
-115 -119 120 0
-117 121 0
-118 121 0
-120 121 0
117 118 120 -121 0
121 -122 0
43 -122 0
44 -122 0
59 -122 0
60 -122 0
-121 -43 -44 -59 -60 122 0
115 -123 0
43 -123 0
-44 -123 0
-62 -123 0
-115 -43 44 62 123 0
121 -124 0
43 -124 0
44 -124 0
59 -124 0
-60 -124 0
-121 -43 -44 -59 60 124 0
-123 125 0
-124 125 0
123 124 -125 0
125 -126 0
66 -126 0
-67 -126 0
85 -126 0
-125 -66 67 -85 126 0
125 -127 0
-68 -127 0
-125 68 127 0
125 -128 0
76 -128 0
-77 -128 0
-125 -76 77 128 0
-80 129 0
-81 129 0
80 81 -129 0
125 -130 0
129 -130 0
-125 -129 130 0
-127 131 0
-128 131 0
-130 131 0
127 128 130 -131 0
131 -132 0
66 -132 0
67 -132 0
82 -132 0
83 -132 0
-131 -66 -67 -82 -83 132 0
125 -133 0
66 -133 0
-67 -133 0
-85 -133 0
-125 -66 67 85 133 0
131 -134 0
66 -134 0
67 -134 0
82 -134 0
-83 -134 0
-131 -66 -67 -82 83 134 0
-133 135 0
-134 135 0
133 134 -135 0
-93 136 0
-95 136 0
93 95 -136 0
135 -137 0
136 -137 0
-135 -136 137 0
135 -138 0
89 -138 0
90 -138 0
-91 -138 0
-92 -138 0
-135 -89 -90 91 92 138 0
135 -139 0
89 -139 0
90 -139 0
91 -139 0
-135 -89 -90 -91 139 0
135 -140 0
89 -140 0
-90 -140 0
-94 -140 0
-135 -89 90 94 140 0
-137 141 0
-138 141 0
-139 141 0
-140 141 0
137 138 139 140 -141 0
-93 142 0
-95 142 0
-96 142 0
-97 142 0
-98 142 0
93 95 96 97 98 -142 0
141 -143 0
142 -143 0
-141 -142 143 0
113 -144 0
20 -144 0
21 -144 0
36 -144 0
37 -144 0
-113 -20 -21 -36 -37 144 0
-107 145 0
-116 145 0
-122 145 0
-126 145 0
-132 145 0
-143 145 0
-144 145 0
107 116 122 126 132 143 144 -145 0
-8 146 0
8 146 0
2 -147 0
146 -147 0
-2 -146 147 0
-147 148 0
2 148 0
147 -2 -148 0
148 -149 0
15 -149 0
17 -149 0
-148 -15 -17 149 0
148 -150 0
-15 -150 0
-148 15 150 0
-149 151 0
-150 151 0
149 150 -151 0
151 -152 0
20 -152 0
-21 -152 0
39 -152 0
-151 -20 21 -39 152 0
151 -153 0
20 -153 0
-21 -153 0
-39 -153 0
-151 -20 21 39 153 0
151 -154 0
-22 -154 0
-151 22 154 0
151 -155 0
30 -155 0
-31 -155 0
-151 -30 31 155 0
151 -156 0
111 -156 0
-151 -111 156 0
-154 157 0
-155 157 0
-156 157 0
154 155 156 -157 0
157 -158 0
20 -158 0
21 -158 0
36 -158 0
-37 -158 0
-157 -20 -21 -36 37 158 0
-153 159 0
-158 159 0
153 158 -159 0
159 -160 0
43 -160 0
-44 -160 0
62 -160 0
-159 -43 44 -62 160 0
159 -161 0
-45 -161 0
-159 45 161 0
159 -162 0
53 -162 0
-54 -162 0
-159 -53 54 162 0
159 -163 0
119 -163 0
-159 -119 163 0
-161 164 0
-162 164 0
-163 164 0
161 162 163 -164 0
164 -165 0
43 -165 0
44 -165 0
59 -165 0
60 -165 0
-164 -43 -44 -59 -60 165 0
159 -166 0
43 -166 0
-44 -166 0
-62 -166 0
-159 -43 44 62 166 0
164 -167 0
43 -167 0
44 -167 0
59 -167 0
-60 -167 0
-164 -43 -44 -59 60 167 0
-166 168 0
-167 168 0
166 167 -168 0
168 -169 0
66 -169 0
-67 -169 0
85 -169 0
-168 -66 67 -85 169 0
168 -170 0
-68 -170 0
-168 68 170 0
168 -171 0
76 -171 0
-77 -171 0
-168 -76 77 171 0
168 -172 0
129 -172 0
-168 -129 172 0
-170 173 0
-171 173 0
-172 173 0
170 171 172 -173 0
173 -174 0
66 -174 0
67 -174 0
82 -174 0
83 -174 0
-173 -66 -67 -82 -83 174 0
168 -175 0
66 -175 0
-67 -175 0
-85 -175 0
-168 -66 67 85 175 0
173 -176 0
66 -176 0
67 -176 0
82 -176 0
-83 -176 0
-173 -66 -67 -82 83 176 0
-175 177 0
-176 177 0
175 176 -177 0
-93 178 0
-95 178 0
93 95 -178 0
177 -179 0
178 -179 0
-177 -178 179 0
177 -180 0
89 -180 0
90 -180 0
-91 -180 0
-92 -180 0
-177 -89 -90 91 92 180 0
177 -181 0
89 -181 0
90 -181 0
91 -181 0
-177 -89 -90 -91 181 0
177 -182 0
89 -182 0
-90 -182 0
-94 -182 0
-177 -89 90 94 182 0
-179 183 0
-180 183 0
-181 183 0
-182 183 0
179 180 181 182 -183 0
183 -184 0
142 -184 0
-183 -142 184 0
157 -185 0
20 -185 0
21 -185 0
36 -185 0
37 -185 0
-157 -20 -21 -36 -37 185 0
-152 186 0
-160 186 0
-165 186 0
-169 186 0
-174 186 0
-184 186 0
-185 186 0
152 160 165 169 174 184 185 -186 0
188 -190 0
189 -190 0
-188 -189 190 0
188 -191 0
-189 -191 0
-188 189 191 0
188 192 0
-190 192 0
-191 192 0
-188 190 191 -192 0
-193 194 0
193 194 0
187 -195 0
192 -195 0
194 -195 0
-187 -192 -194 195 0
-187 -196 0
192 -196 0
187 -192 196 0
-195 197 0
-196 197 0
195 196 -197 0
-198 199 0
198 199 0
-201 202 0
201 202 0
200 -203 0
202 -203 0
-200 -202 203 0
200 204 0
-203 204 0
-200 203 -204 0
197 -205 0
199 -205 0
204 -205 0
-197 -199 -204 205 0
-193 206 0
193 206 0
187 -207 0
206 -207 0
-187 -206 207 0
-207 208 0
187 208 0
207 -187 -208 0
208 -209 0
200 -209 0
202 -209 0
-208 -200 -202 209 0
208 -210 0
-200 -210 0
-208 200 210 0
-209 211 0
-210 211 0
209 210 -211 0
-193 212 0
193 212 0
187 -213 0
212 -213 0
-187 -212 213 0
-213 214 0
187 214 0
213 -187 -214 0
214 -215 0
200 -215 0
202 -215 0
-214 -200 -202 215 0
214 -216 0
-200 -216 0
-214 200 216 0
-215 217 0
-216 217 0
215 216 -217 0
-211 -145 -218 0
211 145 -218 0
-211 145 218 0
211 -145 218 0
-217 -186 -219 0
217 186 -219 0
-217 186 219 0
217 -186 219 0
-218 -220 0
-219 -220 0
205 -220 0
218 219 -205 220 0
-100 220 0
